p cnf 31 81
a 12 0
e 1 2 3 4 5 6 7 8 9 10 11 13 14 15 16 17 18 19 20 21 22 23 24 25 26 27 28 29 30 31 0
3 -1 0
3 2 0
1 -2 -3 0
-5 -1 0
-5 -4 0
1 4 5 0
-6 -5 0
-6 5 0
-8 -6 0
-8 7 0
6 -7 8 0
9 4 0
9 2 0
-4 -2 -9 0
10 8 0
10 9 0
-8 -9 -10 0
-12 -11 0
-12 -7 0
11 7 12 0
13 -10 0
13 12 0
10 -12 -13 0
-2 -15 -16 0
2 15 -16 0
-2 15 16 0
2 -15 16 0
17 16 0
17 -5 0
-16 5 -17 0
-5 6 -18 0
5 -6 -18 0
-5 -6 18 0
5 6 18 0
17 18 -19 0
-17 -18 -19 0
17 -18 19 0
-17 18 19 0
20 -14 0
20 19 0
14 -19 -20 0
-22 20 0
-22 21 0
-20 -21 22 0
23 13 0
23 22 0
-13 -22 -23 0
-24 -7 0
-24 -14 0
7 14 24 0
-2 -15 -25 0
2 15 -25 0
-2 15 25 0
2 -15 25 0
-26 25 0
-26 7 0
-25 -7 26 0
-7 26 -27 0
7 -26 -27 0
-7 -26 27 0
7 26 27 0
28 -27 0
28 -16 0
27 16 -28 0
-29 24 0
-29 28 0
-24 -28 29 0
30 -23 0
30 29 0
23 -29 -30 0
-31 3 0
-31 -30 0
-3 30 31 0
4 -7 18 -28 0
-13 6 29 -30 12 -14 0
7 -30 26 11 0
15 -28 16 -30 0
7 -1 11 0
-12 -7 21 -8 4 -26 9 0
-13 -14 17 15 -6 27 -7 0
31 0
